0 2 3 4 5 6 7 8 1 2 3 4
2 0 9 3 4 5 6 7 2 3 4 5
3 9 0 9 1 2 3 4 3 4 5 6
4 3 9 0 9 1 2 3 4 5 6 7
5 4 1 9 0 9 1 2 5 6 7 8
6 5 2 1 9 0 9 1 6 7 8 9
7 6 3 2 1 9 0 9 1 2 3 4
8 7 4 3 2 1 9 0 2 3 4 5
1 2 3 4 5 6 1 2 0 1 2 3
2 3 4 5 6 7 2 3 1 0 2 3
3 4 5 6 7 8 3 4 2 2 0 8
4 5 6 7 8 9 4 5 3 3 8 0